unknown system                          
    1.000000000000000     
    10.860000    0.000000    0.000000
     0.000000   10.860000    0.000000
     0.000000    0.000000   10.860000
   Si
    65
Direct
   0.375000  0.375000  0.125000
   0.000000  0.250000  0.250000
   0.375000  0.125000  0.375000
   0.000000  0.000000  0.000000
   0.125000  0.375000  0.375000
   0.250000  0.250000  0.000000
   0.125000  0.125000  0.125000
   0.250000  0.000000  0.250000
   0.000000  0.250000  0.750000
   0.375000  0.125000  0.875000
   0.000000  0.000000  0.500000
   0.125000  0.375000  0.875000
   0.250000  0.250000  0.500000
   0.125000  0.125000  0.625000
   0.250000  0.000000  0.750000
   0.375000  0.875000  0.125000
   0.000000  0.750000  0.250000
   0.375000  0.625000  0.375000
   0.000000  0.500000  0.000000
   0.125000  0.875000  0.375000
   0.250000  0.750000  0.000000
   0.125000  0.625000  0.125000
   0.250000  0.500000  0.250000
   0.375000  0.875000  0.625000
   0.000000  0.750000  0.750000
   0.375000  0.625000  0.875000
   0.000000  0.500000  0.500000
   0.125000  0.875000  0.875000
   0.250000  0.750000  0.500000
   0.125000  0.625000  0.625000
   0.250000  0.500000  0.750000
   0.875000  0.375000  0.125000
   0.500000  0.250000  0.250000
   0.875000  0.125000  0.375000
   0.500000  0.000000  0.000000
   0.625000  0.375000  0.375000
   0.750000  0.250000  0.000000
   0.625000  0.125000  0.125000
   0.750000  0.000000  0.250000
   0.875000  0.375000  0.625000
   0.500000  0.250000  0.750000
   0.875000  0.125000  0.875000
   0.500000  0.000000  0.500000
   0.625000  0.375000  0.875000
   0.750000  0.250000  0.500000
   0.625000  0.125000  0.625000
   0.750000  0.000000  0.750000
   0.875000  0.875000  0.125000
   0.500000  0.750000  0.250000
   0.875000  0.625000  0.375000
   0.500000  0.500000  0.000000
   0.625000  0.875000  0.375000
   0.750000  0.750000  0.000000
   0.625000  0.625000  0.125000
   0.750000  0.500000  0.250000
   0.875000  0.875000  0.625000
   0.500000  0.750000  0.750000
   0.875000  0.625000  0.875000
   0.500000  0.500000  0.500000
   0.625000  0.875000  0.875000
   0.750000  0.750000  0.500000
   0.625000  0.625000  0.625000
   0.750000  0.500000  0.750000
   0.454533  0.454533  0.625000
   0.295467  0.295467  0.625000
